100
1000
298
296
291
289
287
287
281
279
279
277
276
275
274
273
272
271
267
265
262
258
257
255
254
253
251
250
244
243
242
235
233
232
232
230
229
224
221
220
220
218
216
214
211
207
206
202
201
200
199
199
192
190
190
188
187
187
185
184
183
182
182
180
180
179
174
173
171
168
167
166
163
161
161
160
158
157
148
148
147
147
143
140
134
133
132
131
127
124
120
119
117
116
114
113
111
109
108
106
106
103
